c instance by G2
c solution = 011111011
c Known solution cost is 366 
p cnf 9 30
w 46 8 54 0 87 9 41 83 38
1 -5 6 0
4 1 -3 0
8 -3 5 0
3 8 -9 0
-4 -9 -1 0
-3 -1 9 0
-3 8 -2 0
8 -5 1 0
8 -1 -9 0
-5 8 2 0
7 2 -3 0
-7 -4 -9 0
-3 8 -7 0
-1 8 -7 0
9 -3 -8 0
-7 4 -1 0
-1 6 9 0
9 -6 8 0
-9 -2 -7 0
5 -3 -9 0
1 8 2 0
2 -9 -5 0
2 -6 -7 0
-9 4 -3 0
-2 -1 -8 0
-3 -9 6 0
-9 4 2 0
6 -2 -4 0
2 5 -3 0
-9 -4 3 0
